
mapping with 16 threads...

 0:00:01.29 Mapping INCOV056-AC.extracted.fq.gz to NUC reference...

 0:13:55.07 Generating binary hit matrix.
0:13:55.10 Loading /labs/khatrilab/solomonb/covid/isb/optitype/INCOV056-AC_1.bam started. Number of HLA reads loaded (updated every thousand):
1K...2K...3K...4K...5K...6K...7K...8K...9K...10K...11K...12K...13K...14K...15K...16K...17K...18K...19K...20K...21K...22K...23K...24K...25K...26K...27K...28K...29K...30K...31K...32K...33K...34K...35K...36K...37K...38K...39K...40K...41K...42K...43K...44K...45K...46K...47K...48K...49K...50K...51K...52K...53K...54K...55K...56K...57K...58K...59K...60K...61K...62K...63K...64K...65K...66K...67K...68K...69K...70K...71K...72K...73K...74K...75K...76K...77K...78K...79K...80K...81K...82K...83K...84K...85K...86K...87K...88K...89K...90K...91K...92K...93K...94K...95K...96K...97K...98K...99K...100K...101K...102K...103K...104K...105K...106K...107K...108K...109K...110K...111K...112K...113K...114K...115K...116K...117K...118K...119K...120K...121K...122K...123K...124K...125K...126K...127K...128K...129K...130K...131K...132K...133K...134K...135K...136K...137K...138K...139K...140K...141K...142K...143K...144K...145K...146K...147K...148K...149K...150K...151K...152K...153K...154K...155K...156K...157K...158K...159K...160K...161K...162K...163K...164K...165K...166K...167K...168K...169K...170K...171K...172K...173K...174K...175K...176K...177K...178K...179K...180K...181K...182K...183K...184K...185K...186K...187K...188K...189K...190K...191K...192K...193K...194K...195K...196K...197K...198K...199K...200K...201K...202K...203K...204K...205K...206K...207K...208K...209K...210K...211K...212K...213K...214K...215K...216K...217K...218K...219K...220K...221K...222K...223K...224K...225K...226K...227K...228K...229K...230K...231K...232K...233K...234K...235K...236K...237K...238K...239K...240K...241K...242K...243K...244K...245K...246K...247K...248K...249K...250K...251K...252K...253K...254K...255K...256K...257K...258K...259K...260K...261K...
 0:15:53.83 261259 reads loaded. Creating dataframe...
0:47:38.11 Dataframes created. Shape: 261259 x 7339, hits: 103347951 (103440011), sparsity: 1 in 18.54

 0:49:51.78 temporary pruning of identical rows and columns

 0:49:57.77 Size of mtx with unique rows and columns: (3192, 1616)
0:49:57.77 determining minimal set of non-overshadowed alleles

 0:50:29.50 Keeping only the minimal number of required alleles (777,)

 0:50:31.57 Creating compact model...

starting ilp solver with 1 threads...

 0:53:48.32 Initializing OptiType model...
GLPSOL: GLPK LP/MIP Solver, v4.57
Parameter(s) specified in the command line:
 --write /tmp/tmp9yPEMJ.glpk.raw --wglp /tmp/tmpHnI_FO.glpk.glp --cpxlp /tmp/tmp2o3FD8.pyomo.lp
Reading problem data from '/tmp/tmp2o3FD8.pyomo.lp'...
/tmp/tmp2o3FD8.pyomo.lp:177456: warning: lower bound of variable 'x9967' redefined
/tmp/tmp2o3FD8.pyomo.lp:177456: warning: upper bound of variable 'x9967' redefined
9966 rows, 5755 columns, 136819 non-zeros
3265 integer variables, all of which are binary
180721 lines were read
Writing problem data to '/tmp/tmpHnI_FO.glpk.glp'...
169975 lines were written
GLPK Integer Optimizer, v4.57
9966 rows, 5755 columns, 136819 non-zeros
3265 integer variables, all of which are binary
Preprocessing...
2233 hidden covering inequaliti(es) were detected
9959 rows, 5752 columns, 136808 non-zeros
3263 integer variables, all of which are binary
Scaling...
 A: min|aij| =  1.000e+00  max|aij| =  6.000e+00  ratio =  6.000e+00
Problem data seem to be well scaled
Constructing initial basis...
Size of triangular part is 9959
Solving LP relaxation...
GLPK Simplex Optimizer, v4.57
9959 rows, 5752 columns, 136808 non-zeros
      0: obj =  -0.000000000e+00 inf =   4.000e+00 (4)
      4: obj =  -0.000000000e+00 inf =   0.000e+00 (0)
*   500: obj =   1.750513587e+05 inf =   4.885e-15 (2387) 1
*  1000: obj =   2.138965990e+05 inf =   0.000e+00 (2101) 1
*  1500: obj =   2.162248680e+05 inf =   0.000e+00 (1822)
*  2000: obj =   2.167896140e+05 inf =   0.000e+00 (1625)
*  2500: obj =   2.169836140e+05 inf =   0.000e+00 (1520)
*  3000: obj =   2.171751140e+05 inf =   0.000e+00 (1403)
*  3500: obj =   2.176694220e+05 inf =   0.000e+00 (1057)
*  4000: obj =   2.179522760e+05 inf =   0.000e+00 (561) 1
*  4500: obj =   2.181887760e+05 inf =   0.000e+00 (61)
*  4561: obj =   2.182176290e+05 inf =   0.000e+00 (0)
OPTIMAL LP SOLUTION FOUND
Integer optimization begins...
+  4561: mip =     not found yet <=              +inf        (1; 0)
+  4561: >>>>>   2.182176290e+05 <=   2.182176290e+05   0.0% (1; 0)
+  4561: mip =   2.182176290e+05 <=     tree is empty   0.0% (0; 1)
INTEGER OPTIMAL SOLUTION FOUND
Time used:   1.7 secs
Memory used: 27.7 Mb (28997192 bytes)
Writing MIP solution to '/tmp/tmp9yPEMJ.glpk.raw'...
15723 lines were written

 0:54:05.85 Result dataframe has been constructed...
